0 0 0 0
0 1 2 0
0 2 0 0
0 3 2 0
0 4 2 1
0 5 1 7
0 6 0 7
0 7 2 15
0 8 2 1
0 9 2 12
0 10 0 11
0 11 2 10
0 12 2 22
0 13 2 12
0 14 0 23
0 15 2 15
0 16 0 21
0 17 2 15
0 18 2 22
0 19 2 22
0 20 2 23
0 21 1 31
0 22 1 31
0 23 2 28
0 24 2 24
0 25 1 31
0 26 0 32
0 27 0 34
0 28 1 37
0 29 1 35
0 30 1 34
0 31 0 41
